local_stuff/sygus_stuff/sygus_inv_oai/sygus_cvc5/cvc_output_2_5min/109_conf1.out
STDERR:
cvc5 interrupted by timeout.
Aborted
